
Log started (V12.7.1.0) Mon May  1 22:09:14 2017


Problem 'graph/net1.net.lp' read.
Read time = 0.00 sec. (0.00 ticks)
CPXPARAM_Read_APIEncoding                        "UTF-8"
Tried aggregator 1 time.
LP Presolve eliminated 10 rows and 8 columns.
All rows and columns eliminated.
Presolve time = 0.00 sec. (0.00 ticks)

Dual simplex - Optimal:  Objective =  5.2000000000e+01
Solution time =    0.00 sec.  Iterations = 0 (0)
Deterministic time = 0.01 ticks  (7.11 ticks/sec)


Variable Name           Solution Value
x1                            2.000000
x3                            4.000000
All other variables in the range 1-8 are 0.

Log started (V12.7.1.0) Mon May  1 22:09:56 2017


Problem 'graph/net1.net.lp' read.
Read time = 0.00 sec. (0.00 ticks)
CPXPARAM_Read_APIEncoding                        "UTF-8"
Tried aggregator 1 time.
LP Presolve eliminated 10 rows and 8 columns.
All rows and columns eliminated.
Presolve time = 0.00 sec. (0.00 ticks)

Dual simplex - Optimal:  Objective =  5.2000000000e+01
Solution time =    0.00 sec.  Iterations = 0 (0)
Deterministic time = 0.01 ticks  (7.11 ticks/sec)


Variable Name           Solution Value
x1                            2.000000
x3                            4.000000
All other variables in the range 1-8 are 0.

Log started (V12.7.1.0) Mon May  1 22:09:58 2017


Problem 'graph/net2.net.lp' read.
Read time = 0.00 sec. (0.00 ticks)
CPXPARAM_Read_APIEncoding                        "UTF-8"
Row 'c4' infeasible, all entries at implied bounds.
Presolve time = 0.00 sec. (0.00 ticks)
Presolve - Infeasible.
Solution time =    0.00 sec.
Deterministic time = 0.00 ticks  (2.47 ticks/sec)
No solution exists.

Log started (V12.7.1.0) Mon May  1 22:10:01 2017


Problem 'graph/net3.net.lp' read.
Read time = 0.00 sec. (0.01 ticks)
CPXPARAM_Read_APIEncoding                        "UTF-8"
Row 'c52' infeasible, all entries at implied bounds.
Presolve time = 0.00 sec. (0.01 ticks)
Presolve - Infeasible.
Solution time =    0.00 sec.
Deterministic time = 0.01 ticks  (14.74 ticks/sec)
No solution exists.

Log started (V12.7.1.0) Mon May  1 22:10:03 2017


Problem 'graph/net4.net.lp' read.
Read time = 0.00 sec. (0.00 ticks)
CPXPARAM_Read_APIEncoding                        "UTF-8"
Tried aggregator 1 time.
LP Presolve eliminated 10 rows and 8 columns.
All rows and columns eliminated.
Presolve time = 0.00 sec. (0.00 ticks)

Dual simplex - Optimal:  Objective =  5.2000000000e+01
Solution time =    0.00 sec.  Iterations = 0 (0)
Deterministic time = 0.01 ticks  (7.11 ticks/sec)


Variable Name           Solution Value
x1                            2.000000
x3                            4.000000
All other variables in the range 1-8 are 0.

Log started (V12.7.1.0) Mon May  1 22:10:09 2017

CPLEX Error  1436: Max or Min missing.
No file read.
No problem exists.
No problem exists.

Log started (V12.7.1.0) Mon May  1 22:15:46 2017


Problem 'graph/net1.net.lp' read.
Read time = 0.00 sec. (0.00 ticks)
CPXPARAM_Read_APIEncoding                        "UTF-8"
Tried aggregator 1 time.
LP Presolve eliminated 10 rows and 8 columns.
All rows and columns eliminated.
Presolve time = 0.00 sec. (0.00 ticks)

Dual simplex - Optimal:  Objective =  5.2000000000e+01
Solution time =    0.00 sec.  Iterations = 0 (0)
Deterministic time = 0.01 ticks  (7.11 ticks/sec)


Variable Name           Solution Value
x1                            2.000000
x3                            4.000000
All other variables in the range 1-8 are 0.

Log started (V12.7.1.0) Mon May  1 22:17:27 2017


Problem 'graph/net1.net.lp' read.
Read time = 0.00 sec. (0.00 ticks)
CPXPARAM_Read_APIEncoding                        "UTF-8"
Tried aggregator 1 time.
LP Presolve eliminated 10 rows and 8 columns.
All rows and columns eliminated.
Presolve time = 0.00 sec. (0.00 ticks)

Dual simplex - Optimal:  Objective =  5.2000000000e+01
Solution time =    0.00 sec.  Iterations = 0 (0)
Deterministic time = 0.01 ticks  (7.11 ticks/sec)


Variable Name           Solution Value
x1                            2.000000
x3                            4.000000
All other variables in the range 1-8 are 0.

Log started (V12.7.1.0) Mon May  1 22:26:56 2017

CPLEX Error  1436: Max or Min missing.
No file read.
No problem exists.
No problem exists.

Log started (V12.7.1.0) Mon May  1 22:27:43 2017


Problem 'graph/net1.net.lp' read.
Read time = 0.00 sec. (0.00 ticks)
CPXPARAM_Read_APIEncoding                        "UTF-8"
Tried aggregator 1 time.
LP Presolve eliminated 10 rows and 2 columns.
Reduced LP has 12 rows, 14 columns, and 32 nonzeros.
Presolve time = 0.00 sec. (0.01 ticks)

Iteration log . . .
Iteration:     1   Dual objective     =            16.000000

Dual simplex - Optimal:  Objective =  4.0000000000e+01
Solution time =    0.00 sec.  Iterations = 5 (0)
Deterministic time = 0.02 ticks  (24.25 ticks/sec)


Variable Name           Solution Value
x2                            2.000000
x3                            3.000000
x4                            1.000000
x9                            3.000000
All other variables in the range 1-16 are 0.

Log started (V12.7.1.0) Mon May  1 22:33:37 2017


Problem 'graph/net1.net.lp' read.
Read time = 0.00 sec. (0.00 ticks)
CPXPARAM_Read_APIEncoding                        "UTF-8"
Tried aggregator 1 time.
LP Presolve eliminated 10 rows and 2 columns.
Reduced LP has 12 rows, 14 columns, and 32 nonzeros.
Presolve time = 0.00 sec. (0.01 ticks)

Iteration log . . .
Iteration:     1   Dual objective     =            16.000000

Dual simplex - Optimal:  Objective =  4.0000000000e+01
Solution time =    0.00 sec.  Iterations = 5 (0)
Deterministic time = 0.02 ticks  (24.25 ticks/sec)


Variable Name           Solution Value
x2                            2.000000
x3                            3.000000
x4                            1.000000
x9                            3.000000
All other variables in the range 1-16 are 0.

Log started (V12.7.1.0) Mon May  1 22:52:34 2017


Problem 'graph/net1.net.lp' read.
Read time = 0.00 sec. (0.00 ticks)
CPXPARAM_Read_APIEncoding                        "UTF-8"
Tried aggregator 1 time.
LP Presolve eliminated 10 rows and 8 columns.
All rows and columns eliminated.
Presolve time = 0.00 sec. (0.00 ticks)

Dual simplex - Optimal:  Objective =  5.2000000000e+01
Solution time =    0.00 sec.  Iterations = 0 (0)
Deterministic time = 0.01 ticks  (7.11 ticks/sec)


Variable Name           Solution Value
x1                            2.000000
x3                            4.000000
All other variables in the range 1-8 are 0.

Log started (V12.7.1.0) Mon May  1 22:52:34 2017


Problem 'graph/net1.net.d.lp' read.
Read time = 0.00 sec. (0.00 ticks)
CPXPARAM_Read_APIEncoding                        "UTF-8"
Tried aggregator 1 time.
LP Presolve eliminated 10 rows and 2 columns.
Reduced LP has 12 rows, 14 columns, and 32 nonzeros.
Presolve time = 0.00 sec. (0.01 ticks)

Iteration log . . .
Iteration:     1   Dual objective     =            16.000000

Dual simplex - Optimal:  Objective =  4.0000000000e+01
Solution time =    0.00 sec.  Iterations = 5 (0)
Deterministic time = 0.02 ticks  (24.25 ticks/sec)


Variable Name           Solution Value
x2                            2.000000
x3                            3.000000
x4                            1.000000
x9                            3.000000
All other variables in the range 1-16 are 0.

Log started (V12.7.1.0) Mon May  1 22:53:27 2017


Problem 'graph/net2.net.lp' read.
Read time = 0.00 sec. (0.00 ticks)
CPXPARAM_Read_APIEncoding                        "UTF-8"
Row 'c4' infeasible, all entries at implied bounds.
Presolve time = 0.00 sec. (0.00 ticks)
Presolve - Infeasible.
Solution time =    0.00 sec.
Deterministic time = 0.00 ticks  (2.47 ticks/sec)
No solution exists.

Log started (V12.7.1.0) Mon May  1 22:53:27 2017


Problem 'graph/net2.net.d.lp' read.
Read time = 0.00 sec. (0.00 ticks)
CPXPARAM_Read_APIEncoding                        "UTF-8"
Tried aggregator 1 time.
LP Presolve eliminated 9 rows and 1 columns.
Reduced LP has 13 rows, 15 columns, and 34 nonzeros.
Presolve time = 0.00 sec. (0.01 ticks)

Iteration log . . .
Iteration:     1   Dual objective     =             8.000000

Dual simplex - Optimal:  Objective =  1.6000000000e+01
Solution time =    0.00 sec.  Iterations = 4 (0)
Deterministic time = 0.02 ticks  (23.92 ticks/sec)


Variable Name           Solution Value
x1                            2.000000
x4                            1.000000
x9                            1.000000
x10                           1.000000
All other variables in the range 1-16 are 0.

Log started (V12.7.1.0) Mon May  1 22:53:30 2017


Problem 'graph/net3.net.lp' read.
Read time = 0.00 sec. (0.01 ticks)
CPXPARAM_Read_APIEncoding                        "UTF-8"
Row 'c52' infeasible, all entries at implied bounds.
Presolve time = 0.00 sec. (0.01 ticks)
Presolve - Infeasible.
Solution time =    0.00 sec.
Deterministic time = 0.01 ticks  (14.74 ticks/sec)
No solution exists.

Log started (V12.7.1.0) Mon May  1 22:53:30 2017


Problem 'graph/net3.net.d.lp' read.
Read time = 0.00 sec. (0.01 ticks)
CPXPARAM_Read_APIEncoding                        "UTF-8"
Implied bounds make row 'c2' infeasible.
Presolve time = 0.00 sec. (0.03 ticks)
Presolve - Infeasible.
Solution time =    0.00 sec.
Deterministic time = 0.03 ticks  (30.60 ticks/sec)
No solution exists.

Log started (V12.7.1.0) Mon May  1 22:53:34 2017


Problem 'graph/net4.net.lp' read.
Read time = 0.00 sec. (0.00 ticks)
CPXPARAM_Read_APIEncoding                        "UTF-8"
Tried aggregator 1 time.
LP Presolve eliminated 10 rows and 8 columns.
All rows and columns eliminated.
Presolve time = 0.00 sec. (0.00 ticks)

Dual simplex - Optimal:  Objective =  5.2000000000e+01
Solution time =    0.00 sec.  Iterations = 0 (0)
Deterministic time = 0.01 ticks  (7.11 ticks/sec)


Variable Name           Solution Value
x1                            2.000000
x3                            4.000000
All other variables in the range 1-8 are 0.

Log started (V12.7.1.0) Mon May  1 22:53:34 2017


Problem 'graph/net4.net.d.lp' read.
Read time = 0.00 sec. (0.00 ticks)
CPXPARAM_Read_APIEncoding                        "UTF-8"
Tried aggregator 1 time.
LP Presolve eliminated 10 rows and 2 columns.
Reduced LP has 12 rows, 14 columns, and 32 nonzeros.
Presolve time = 0.00 sec. (0.01 ticks)

Iteration log . . .
Iteration:     1   Dual objective     =            16.000000

Dual simplex - Optimal:  Objective =  4.0000000000e+01
Solution time =    0.00 sec.  Iterations = 5 (0)
Deterministic time = 0.02 ticks  (24.25 ticks/sec)


Variable Name           Solution Value
x2                            2.000000
x3                            3.000000
x4                            1.000000
x9                            3.000000
All other variables in the range 1-16 are 0.

Log started (V12.7.1.0) Mon May  1 22:53:37 2017


Problem 'graph/net5.net.lp' read.
Read time = 0.00 sec. (0.01 ticks)
CPXPARAM_Read_APIEncoding                        "UTF-8"
Tried aggregator 1 time.
LP Presolve eliminated 29 rows and 48 columns.
Aggregator did 11 substitutions.
Reduced LP has 22 rows, 36 columns, and 105 nonzeros.
Presolve time = 0.00 sec. (0.05 ticks)

Iteration log . . .
Iteration:     1   Dual objective     =           192.000000

Dual simplex - Infeasible:  Objective =  9.4600000000e+02
Solution time =    0.00 sec.  Iterations = 7 (0)
Infeasible variable = slack c52
Deterministic time = 0.10 ticks  (96.97 ticks/sec)


Variable Name           Solution Value
x1                           -7.000000**
x4                           17.000000
x6                           24.000000
x7                           17.000000
x26                          17.000000
x28                          17.000000
x70                          17.000000
x85                          10.000000
x88                          24.000000
All other variables in the range 1-95 are 0.

Log started (V12.7.1.0) Mon May  1 22:53:37 2017


Problem 'graph/net5.net.d.lp' read.
Read time = 0.00 sec. (0.02 ticks)
CPXPARAM_Read_APIEncoding                        "UTF-8"
Tried aggregator 1 time.
LP Presolve eliminated 51 rows and 6 columns.
Aggregator did 7 substitutions.
Reduced LP has 75 rows, 177 columns, and 484 nonzeros.
Presolve time = 0.00 sec. (0.10 ticks)

Iteration log . . .
Iteration:     1   Dual objective     =           214.000000

Dual simplex - Optimal:  Objective =  1.0320000000e+03
Solution time =    0.00 sec.  Iterations = 24 (0)
Deterministic time = 0.23 ticks  (227.49 ticks/sec)


Variable Name           Solution Value
x1                           22.000000
x6                           10.000000
x9                           24.000000
x12                          10.000000
x15                          16.000000
x20                          17.000000
x41                          24.000000
x49                          16.000000
x122                         22.000000
x141                         10.000000
x186                         17.000000
All other variables in the range 1-190 are 0.

Log started (V12.7.1.0) Mon May  1 22:53:40 2017


Problem 'graph/net6.net.lp' read.
Read time = 0.00 sec. (0.00 ticks)
CPXPARAM_Read_APIEncoding                        "UTF-8"
Infeasibility row 'c8':  0  = -16.
Presolve time = 0.00 sec. (0.00 ticks)
Presolve - Infeasible.
Solution time =    0.00 sec.
Deterministic time = 0.00 ticks  (4.63 ticks/sec)
No solution exists.

Log started (V12.7.1.0) Mon May  1 22:53:40 2017


Problem 'graph/net6.net.d.lp' read.
Read time = 0.00 sec. (0.00 ticks)
CPXPARAM_Read_APIEncoding                        "UTF-8"
Tried aggregator 1 time.
LP Presolve eliminated 31 rows and 2 columns.
Aggregator did 1 substitutions.
Reduced LP has 27 rows, 39 columns, and 101 nonzeros.
Presolve time = 0.00 sec. (0.03 ticks)

Iteration log . . .
Iteration:     1   Dual objective     =            71.000000

Dual simplex - Optimal:  Objective =  2.9800000000e+02
Solution time =    0.00 sec.  Iterations = 9 (0)
Deterministic time = 0.06 ticks  (64.38 ticks/sec)


Variable Name           Solution Value
x1                            6.000000
x2                           10.000000
x3                           10.000000
x5                           17.000000
x27                           6.000000
x33                          17.000000
x38                           6.000000
x39                          10.000000
All other variables in the range 1-42 are 0.

Log started (V12.7.1.0) Mon May  1 22:53:46 2017


Problem 'graph/net7.net.lp' read.
Read time = 0.00 sec. (0.00 ticks)
CPXPARAM_Read_APIEncoding                        "UTF-8"
Row 'c38' infeasible, all entries at implied bounds.
Presolve time = 0.00 sec. (0.01 ticks)
Presolve - Infeasible.
Solution time =    0.00 sec.
Deterministic time = 0.01 ticks  (11.01 ticks/sec)
No solution exists.

Log started (V12.7.1.0) Mon May  1 22:53:46 2017


Problem 'graph/net7.net.d.lp' read.
Read time = 0.00 sec. (0.01 ticks)
CPXPARAM_Read_APIEncoding                        "UTF-8"
Tried aggregator 1 time.
LP Presolve eliminated 55 rows and 2 columns.
Reduced LP has 61 rows, 128 columns, and 337 nonzeros.
Presolve time = 0.00 sec. (0.06 ticks)

Iteration log . . .
Iteration:     1   Dual objective     =            87.000000

Dual simplex - Optimal:  Objective =  5.5300000000e+02
Solution time =    0.00 sec.  Iterations = 19 (0)
Deterministic time = 0.15 ticks  (107.23 ticks/sec)


Variable Name           Solution Value
x4                           11.000000
x7                           10.000000
x8                           13.000000
x11                          16.000000
x13                          13.000000
x15                          16.000000
x69                          13.000000
x74                          13.000000
x80                          13.000000
x88                          16.000000
x97                          16.000000
x127                         10.000000
All other variables in the range 1-130 are 0.

Log started (V12.7.1.0) Mon May  1 22:54:00 2017

CPLEX Error  1436: Max or Min missing.
No file read.
No problem exists.
No problem exists.

Log started (V12.7.1.0) Mon May  1 22:54:03 2017

CPLEX Error  1436: Max or Min missing.
No file read.
No problem exists.
No problem exists.

Log started (V12.7.1.0) Mon May  1 23:12:40 2017

CPLEX Error  1436: Max or Min missing.
No file read.
No problem exists.
No problem exists.

Log started (V12.7.1.0) Mon May  1 23:12:42 2017

CPLEX Error  1436: Max or Min missing.
No file read.
No problem exists.
No problem exists.

Log started (V12.7.1.0) Mon May  1 23:38:21 2017


Problem 'graph/net1.net.lp' read.
Read time = 0.01 sec. (0.00 ticks)
CPXPARAM_Read_APIEncoding                        "UTF-8"
Tried aggregator 1 time.
LP Presolve eliminated 10 rows and 8 columns.
All rows and columns eliminated.
Presolve time = 0.00 sec. (0.00 ticks)

Dual simplex - Optimal:  Objective =  5.2000000000e+01
Solution time =    0.00 sec.  Iterations = 0 (0)
Deterministic time = 0.01 ticks  (7.11 ticks/sec)


Variable Name           Solution Value
x1                            2.000000
x3                            4.000000
All other variables in the range 1-8 are 0.

Log started (V12.7.1.0) Mon May  1 23:38:21 2017


Problem 'graph/net1.net.d.lp' read.
Read time = 0.00 sec. (0.00 ticks)
CPXPARAM_Read_APIEncoding                        "UTF-8"
Tried aggregator 1 time.
LP Presolve eliminated 10 rows and 2 columns.
Reduced LP has 12 rows, 14 columns, and 32 nonzeros.
Presolve time = 0.00 sec. (0.01 ticks)

Iteration log . . .
Iteration:     1   Dual objective     =            16.000000

Dual simplex - Optimal:  Objective =  4.0000000000e+01
Solution time =    0.00 sec.  Iterations = 5 (0)
Deterministic time = 0.02 ticks  (24.25 ticks/sec)


Variable Name           Solution Value
x2                            2.000000
x3                            3.000000
x4                            1.000000
x9                            3.000000
All other variables in the range 1-16 are 0.
